&dos
               
                      outdir = './out'
                 DeltaE=0.1
                    fildos = '3x3_MoS2_mo.dos.dat'
                    prefix = '3x3_MoS2_mo'
                    degauss = 0.01
/
