&CONTROL
                 calculation = 'scf'
                restart_mode = 'from_scratch'
                      outdir = './out'
                  pseudo_dir = './'
                      prefix = '3x3_MoS2'
                    nstep = 400
                     tstress = .true.
                     tprnfor = .true.
 /
 &SYSTEM
                       ibrav = 0
                        ntyp = 2
                         nat = 26
                     ecutwfc = 60,
                     ecutrho = 600,
                   celldm(1) = 17.57351883
                     !celldm(3)= 4.757624000
                     vdw_corr='grimme-d2',
 !occupations='smearing',
  !  smearing='mv'
   ! degauss=0.01
                     nbnd=100    
                     !lspinorb=.true.
 /
 &ELECTRONS
            electron_maxstep = 300
                    conv_thr = 1.0D-8
                 mixing_beta = 0.7
             diagonalization = 'david'
 /
&IONS
 /
&CELL
cell_dynamics='bfgs'
cell_factor=2.5
cell_dofree='2Dxy'
/

ATOMIC_SPECIES
Mo  95.95  Mo.pw-mt_fhi.UPF
S   32.065  S.pw-mt_fhi.UPF

CELL_PARAMETERS (alat= 17.57351883)
   0.988692484  -0.000006971   0.000000000
  -0.494352283   0.856229331   0.000000000
   0.000000000   0.000000000   1.946870157

ATOMIC_POSITIONS (angstrom)
Mo            1.5316876389        0.8998040650       11.1534982016
S             0.0392398193        1.8179476414       12.7103729281
S            -0.0211205677        1.7778244890        9.6083539847
Mo            0.0458249901        3.5574675033       11.1263767303
S            -1.4639488414        4.4215400577       12.7103100107
S            -1.5287802709        4.3893104065        9.6082329074
Mo           -1.5128979418        6.1730613536       11.1534090063
S            -3.0655170349        7.0694664403       12.6938339615
S            -3.0655841218        7.0695051498        9.6139382341
Mo            4.5969734719        0.8766414628       11.1908636541
S             3.0241859098        1.8178225913       12.7104002867
S             3.0844531905        1.7778161375        9.6083035630
Mo            3.0176091195        3.5573719356       11.1264435684
S             1.5317857096        4.4152123555        9.5595634295
Mo            1.5316343472        6.1309646961       11.1263767634
S             0.0284386886        7.0064311302       12.7103097712
S             0.0239347163        7.0786911233        9.6082328680
Mo            7.6607139160        0.8766740361       11.1909574324
S             6.1287897520        1.7611309637       12.7527310552
S             6.1288782834        1.7610801743        9.6507931309
Mo            6.1288720405        3.5299676478       11.1908639473
S             4.5273912795        4.4214509759       12.7104003769
S             4.5921719069        4.3892610084        9.6083039423
Mo            4.5761696427        6.1730015486       11.1534982543
S             3.0348099801        7.0064274582       12.7103728993
S             3.0393774195        7.0787627340        9.6083542323

K_POINTS automatic
10  10  1   0 0 0
