&CONTROL
 		  calculation = 'nscf'
                restart_mode = 'from_scratch'
                      outdir = './out'
                  pseudo_dir = './'
                      prefix = '3x3_MoS2_mo'
                    nstep = 400
                     tstress = .true.
                     tprnfor = .true.
                     verbosity = 'high'
/
&SYSTEM
                        ibrav = 0
                         nat = 26
                        ntyp = 2
                    ecutwfc = 60,
                    ecutrho = 600,
                    celldm(1)=17.57351883
                     !celldm(3)= 4.757624000
                     vdw_corr='grimme-d2',
 !occupations='smearing',
  !  smearing='mv'
   ! degauss=0.01
                     nbnd=100
         
  
/
&ELECTRONS
           electron_maxstep = 1000
                    conv_thr = 1.0D-4
                 mixing_beta = 0.3
             diagonalization = 'david'
 /
 &CELL
cell_dynamics='bfgs'
cell_factor=2.5
cell_dofree='2Dxy'
/
 
ATOMIC_SPECIES
Mo  95.95  Mo.pw-mt_fhi.UPF
S   32.065  S.pw-mt_fhi.UPF

CELL_PARAMETERS (alat= 17.57351883)
   0.997900929  -0.000076234   0.000000000
  -0.499016491   0.864143248   0.000000000
   0.000000000   0.000000000   1.946870157

ATOMIC_POSITIONS (angstrom)
Mo            1.5719099142        0.8899119926       11.2005202520
S             0.0038736788        1.8016512648       12.7020095062
S             0.0233641759        1.7694731563        9.6180358753
Mo            0.0158841714        3.5826377094       11.1200098179
S            -1.5061655361        4.4607643500       12.7010614971
S            -1.5895121711        4.4604229122        9.6182692377
Mo           -1.5477260036        6.2417465596       11.1593995144
S            -3.1118648064        7.0954386563       12.7002767274
S            -3.0689874612        7.1694131691        9.6183509967
Mo            4.6141293352        0.8894071831       11.1188043940
S             3.0500945888        1.7834908714       12.6875617909
S             3.1355414488        1.7871231824        9.6346682824
S             1.5721020238        4.4898845978       12.6864315951
S             1.5293229133        4.4156724114        9.6322801191
Mo            1.5367890589        6.2168950633       11.1986322422
S            -0.0259508254        7.1687887198       12.7003276428
S             0.0153543428        7.0960342750        9.6177208240
Mo            7.7328236004        0.8836202879       11.1593018600
S             6.1623317355        1.7682056811       12.7012996279
S             6.1816497668        1.8014403618        9.6171421042
Mo            6.1687775466        3.5816337147       11.1995050893
S             4.6514964859        4.4130139232       12.6833280454
S             4.6133212975        4.4895254019        9.6302903302
Mo            4.6471929843        6.2159501390       11.1181684250
S             3.1109949879        7.1170815020       12.7005218538
S             3.0733391929        7.1178533746        9.6166601787


K_POINTS automatic
30  30  1   0 0 0
