&inputpp
 prefix ='3x3_MoS2_mo'
 outdir = './out',
 filplot = '3x3_mos2_mo-1.0'
 sample_bias=-0.0735d0,
 plot_num=5,
/
&plot
  nfile = 1
  filepp(1) = '3x3_mos2_mo-1.0'
  weight(1) = 1
  iflag=3,
  output_format=5,
  fileout='3x3_MoS2_mo-1.0.xsf',
/
