&CONTROL
                 calculation = 'vc-relax'
                restart_mode = 'from_scratch'
                      outdir = './out'
                  pseudo_dir = './'
                      prefix = '3x3_MoS2_mo'
                    nstep = 400
                     tstress = .true.
                     tprnfor = .true.
 /
 &SYSTEM
                       ibrav = 0
                         nat = 26
                        ntyp = 2
                    ecutwfc = 60,
                    ecutrho = 600,
                    celldm(1)=17.57351883
                     !celldm(3)= 4.757624000
                     vdw_corr='grimme-d2',
 !occupations='smearing',
  !  smearing='mv'
   ! degauss=0.01
                    ! nbnd=100
                     !lspinorb=.true.
 /
 &ELECTRONS
            electron_maxstep = 1000
                    conv_thr = 1.0D-4
                 mixing_beta = 0.3
             diagonalization = 'david'
 /
&IONS
 /
&CELL
cell_dynamics='bfgs'
cell_factor=2.5
cell_dofree='2Dxy'
/

ATOMIC_SPECIES
Mo  95.95  Mo.pw-mt_fhi.UPF
S   32.065  S.pw-mt_fhi.UPF

CELL_PARAMETERS (alat= 17.57351883)
   0.998112023   0.000041456   0.000000000
  -0.499020114   0.864411137   0.000000000
   0.000000000   0.000000000   1.946870157

ATOMIC_POSITIONS (angstrom)
Mo            1.5474874211        0.8868171913       11.1592532079
S             0.0005390535        1.7800395775       12.7026608808
S             0.0005390589        1.7800393368        9.6158450730
Mo           -0.0006753567        3.5666777438       11.1592529972
S            -1.5486746376        4.4591167630       12.7036684593
S            -1.5486747232        4.4591168322        9.6148372901
Mo           -1.5496768598        6.2452368445       11.1592530285
S            -3.0974408174        7.1388388003       12.7026022903
S            -3.0974410995        7.1388388803        9.6159037732
Mo            4.6416909177        0.8846368645       11.1592529596
S             3.0956327331        1.7786203740       12.7037388468
S             3.0956325142        1.7786204248        9.6147671200

S             1.5464192432        4.4577049613       12.7047358602
S             1.5464193890        4.4577048817        9.6137699731
Mo            1.5445238622        6.2430417973       11.1592529915
S            -0.0023505263        7.1374289581       12.7036687065
S            -0.0023506501        7.1374289503        9.6148369814
Mo            7.7365998909        0.8838022547       11.1592531585
S             6.1904017797        1.7764999715       12.7027211485
S             6.1904019359        1.7764999415        9.6157846787
Mo            6.1884224578        3.5636546850       11.1592530118
S             4.6411807774        4.4555887325       12.7037386928
S             4.6411806851        4.4555889293        9.6147674182
Mo            4.6394323819        6.2422236944       11.1592532629
S             3.0924048982        7.1353092336       12.7026609795
S             3.0924051632        7.1353093076        9.6158450396
K_POINTS automatic
10  10  1   0 0 0


