&CONTROL
  calculation = 'bands'
  outdir = './out/'
  pseudo_dir = './'
  prefix = '3x3_MoS2_mo'
  verbosity = 'high'
  nstep = 400
  tstress = .true.
  tprnfor = .true.
/
&SYSTEM
                        ibrav = 0
                         nat = 26
                        ntyp = 2
                    ecutwfc = 60,
                    ecutrho = 600,
                    celldm(1)=17.57351883
 vdw_corr='grimme-d2'
         nbnd=100       
         
  
/
&ELECTRONS
            electron_maxstep = 1000
                    conv_thr = 1.0D-4
                 mixing_beta = 0.3
             diagonalization = 'david'
/
ATOMIC_SPECIES
Mo  95.95  Mo.pw-mt_fhi.UPF
S   32.065  S.pw-mt_fhi.UPF

CELL_PARAMETERS (alat= 17.57351883)
   0.997900929  -0.000076234   0.000000000
  -0.499016491   0.864143248   0.000000000
   0.000000000   0.000000000   1.946870157

ATOMIC_POSITIONS (angstrom)
Mo            1.5719099142        0.8899119926       11.2005202520
S             0.0038736788        1.8016512648       12.7020095062
S             0.0233641759        1.7694731563        9.6180358753
Mo            0.0158841714        3.5826377094       11.1200098179
S            -1.5061655361        4.4607643500       12.7010614971
S            -1.5895121711        4.4604229122        9.6182692377
Mo           -1.5477260036        6.2417465596       11.1593995144
S            -3.1118648064        7.0954386563       12.7002767274
S            -3.0689874612        7.1694131691        9.6183509967
Mo            4.6141293352        0.8894071831       11.1188043940
S             3.0500945888        1.7834908714       12.6875617909
S             3.1355414488        1.7871231824        9.6346682824
S             1.5721020238        4.4898845978       12.6864315951
S             1.5293229133        4.4156724114        9.6322801191
Mo            1.5367890589        6.2168950633       11.1986322422
S            -0.0259508254        7.1687887198       12.7003276428
S             0.0153543428        7.0960342750        9.6177208240
Mo            7.7328236004        0.8836202879       11.1593018600
S             6.1623317355        1.7682056811       12.7012996279
S             6.1816497668        1.8014403618        9.6171421042
Mo            6.1687775466        3.5816337147       11.1995050893
S             4.6514964859        4.4130139232       12.6833280454
S             4.6133212975        4.4895254019        9.6302903302
Mo            4.6471929843        6.2159501390       11.1181684250
S             3.1109949879        7.1170815020       12.7005218538
S             3.0733391929        7.1178533746        9.6166601787
 K_POINTS crystal
         100
        0.0000000000    0.0000000000    0.0000000000    1.0
        0.0138888889   -0.0138888889    0.0000000000    1.0
        0.0277777778   -0.0277777778    0.0000000000    1.0
        0.0416666667   -0.0416666667    0.0000000000    1.0
        0.0555555556   -0.0555555556    0.0000000000    1.0
        0.0694444444   -0.0694444444    0.0000000000    1.0
        0.0833333333   -0.0833333333    0.0000000000    1.0
        0.0972222222   -0.0972222222    0.0000000000    1.0
        0.1111111111   -0.1111111111    0.0000000000    1.0
        0.1250000000   -0.1250000000    0.0000000000    1.0
        0.1388888889   -0.1388888889    0.0000000000    1.0
        0.1527777778   -0.1527777778    0.0000000000    1.0
        0.1666666667   -0.1666666667    0.0000000000    1.0
        0.1805555556   -0.1805555556    0.0000000000    1.0
        0.1944444444   -0.1944444444    0.0000000000    1.0
        0.2083333333   -0.2083333333    0.0000000000    1.0
        0.2222222222   -0.2222222222    0.0000000000    1.0
        0.2361111111   -0.2361111111    0.0000000000    1.0
        0.2500000000   -0.2500000000    0.0000000000    1.0
        0.2638888889   -0.2638888889    0.0000000000    1.0
        0.2777777778   -0.2777777778    0.0000000000    1.0
        0.2916666667   -0.2916666667    0.0000000000    1.0
        0.3055555556   -0.3055555556    0.0000000000    1.0
        0.3194444444   -0.3194444444    0.0000000000    1.0
        0.3333333333   -0.3333333333    0.0000000000    1.0
        0.3472222222   -0.3472222222    0.0000000000    1.0
        0.3611111111   -0.3611111111    0.0000000000    1.0
        0.3750000000   -0.3750000000    0.0000000000    1.0
        0.3888888889   -0.3888888889    0.0000000000    1.0
        0.4027777778   -0.4027777778    0.0000000000    1.0
        0.4166666667   -0.4166666667    0.0000000000    1.0
        0.4305555556   -0.4305555556    0.0000000000    1.0
        0.4444444444   -0.4444444444    0.0000000000    1.0
        0.4583333333   -0.4583333333    0.0000000000    1.0
        0.4722222222   -0.4722222222    0.0000000000    1.0
        0.4861111111   -0.4861111111    0.0000000000    1.0
        0.5000000000   -0.5000000000    0.0000000000    1.0
        0.4920614286   -0.5079376190    0.0000000000    1.0
        0.4841228571   -0.5158752381    0.0000000000    1.0
        0.4761842857   -0.5238128571    0.0000000000    1.0
        0.4682457143   -0.5317504762    0.0000000000    1.0
        0.4603071429   -0.5396880952    0.0000000000    1.0
        0.4523685714   -0.5476257143    0.0000000000    1.0
        0.4444300000   -0.5555633333    0.0000000000    1.0
        0.4364914286   -0.5635009524    0.0000000000    1.0
        0.4285528571   -0.5714385714    0.0000000000    1.0
        0.4206142857   -0.5793761905    0.0000000000    1.0
        0.4126757143   -0.5873138095    0.0000000000    1.0
        0.4047371429   -0.5952514286    0.0000000000    1.0
        0.3967985714   -0.6031890476    0.0000000000    1.0
        0.3888600000   -0.6111266667    0.0000000000    1.0
        0.3809214286   -0.6190642857    0.0000000000    1.0
        0.3729828571   -0.6270019048    0.0000000000    1.0
        0.3650442857   -0.6349395238    0.0000000000    1.0
        0.3571057143   -0.6428771429    0.0000000000    1.0
        0.3491671429   -0.6508147619    0.0000000000    1.0
        0.3412285714   -0.6587523810    0.0000000000    1.0
        0.3332900000   -0.6666900000    0.0000000000    1.0
        0.3253545238   -0.6508164286    0.0000000000    1.0
        0.3174190476   -0.6349428571    0.0000000000    1.0
        0.3094835714   -0.6190692857    0.0000000000    1.0
        0.3015480952   -0.6031957143    0.0000000000    1.0
        0.2936126190   -0.5873221429    0.0000000000    1.0
        0.2856771429   -0.5714485714    0.0000000000    1.0
        0.2777416667   -0.5555750000    0.0000000000    1.0
        0.2698061905   -0.5397014286    0.0000000000    1.0
        0.2618707143   -0.5238278571    0.0000000000    1.0
        0.2539352381   -0.5079542857    0.0000000000    1.0
        0.2459997619   -0.4920807143    0.0000000000    1.0
        0.2380642857   -0.4762071429    0.0000000000    1.0
        0.2301288095   -0.4603335714    0.0000000000    1.0
        0.2221933333   -0.4444600000    0.0000000000    1.0
        0.2142578571   -0.4285864286    0.0000000000    1.0
        0.2063223810   -0.4127128571    0.0000000000    1.0
        0.1983869048   -0.3968392857    0.0000000000    1.0
        0.1904514286   -0.3809657143    0.0000000000    1.0
        0.1825159524   -0.3650921429    0.0000000000    1.0
        0.1745804762   -0.3492185714    0.0000000000    1.0
        0.1666450000   -0.3333450000    0.0000000000    1.0
        0.1587095238   -0.3174714286    0.0000000000    1.0
        0.1507740476   -0.3015978571    0.0000000000    1.0
        0.1428385714   -0.2857242857    0.0000000000    1.0
        0.1349030952   -0.2698507143    0.0000000000    1.0
        0.1269676190   -0.2539771429    0.0000000000    1.0
        0.1190321429   -0.2381035714    0.0000000000    1.0
        0.1110966667   -0.2222300000    0.0000000000    1.0
        0.1031611905   -0.2063564286    0.0000000000    1.0
        0.0952257143   -0.1904828571    0.0000000000    1.0
        0.0872902381   -0.1746092857    0.0000000000    1.0
        0.0793547619   -0.1587357143    0.0000000000    1.0
        0.0714192857   -0.1428621429    0.0000000000    1.0
        0.0634838095   -0.1269885714    0.0000000000    1.0
        0.0555483333   -0.1111150000    0.0000000000    1.0
        0.0476128571   -0.0952414286    0.0000000000    1.0
        0.0396773810   -0.0793678571    0.0000000000    1.0
        0.0317419048   -0.0634942857    0.0000000000    1.0
        0.0238064286   -0.0476207143    0.0000000000    1.0
        0.0158709524   -0.0317471429    0.0000000000    1.0
        0.0079354762   -0.0158735714    0.0000000000    1.0
        0.0000000000    0.0000000000    0.0000000000    1.0
