&CONTROL
  calculation = 'nscf'
                restart_mode = 'from_scratch'
                      outdir = './out'
                  pseudo_dir = './'
                      prefix = '1x1_MoS2'
                    nstep = 400
                     tstress = .true.
                     tprnfor = .true.
                     verbosity = 'high'
/
&SYSTEM
                        ibrav = 0
                         nat = 3
                        ntyp = 2
                    ecutwfc = 60,
                    ecutrho = 600,
                    celldm(1)=5.85783961
                     !celldm(3)= 4.757624000
                     vdw_corr='grimme-d2',
 !occupations='smearing',
  !  smearing='mv'
   ! degauss=0.01
                     nbnd=100
         
  
/
&ELECTRONS
            electron_maxstep = 300
                    conv_thr = 1.0D-8
                 mixing_beta = 0.7
             diagonalization = 'david'
 /
 &CELL
cell_dynamics='bfgs'
cell_factor=2.5
cell_dofree='2Dxy'
/
 
ATOMIC_SPECIES
Mo  95.95  Mo.pw-mt_fhi.UPF
S   32.065  S.pw-mt_fhi.UPF

CELL_PARAMETERS (alat=  5.85783961)
   0.998010261   0.000147869   0.000000000
  -0.498877076   0.864376263   0.000000000
   0.000000000   0.000000000   5.840610472

ATOMIC_POSITIONS (angstrom)
Mo            1.5361756847        0.8636974709       11.1592555962
S            -0.0107180216        1.7567970783       12.7047119821
S            -0.0107181030        1.7567971309        9.6137914217

K_POINTS automatic
30  30  1   0 0 0
