&CONTROL
                 calculation = 'vc-relax'
                restart_mode = 'from_scratch'
                      outdir = './out'
                  pseudo_dir = './'
                      prefix = '1x1_MoS2'
                    nstep = 400
                     tstress = .true.
                     tprnfor = .true.
 /
 &SYSTEM
                       ibrav = 0
                         nat = 3
                        ntyp = 2
                    ecutwfc = 60,
                    ecutrho = 600,
                    celldm(1)=5.85783961
                     !celldm(3)= 4.757624000
                     vdw_corr='grimme-d2',
 !occupations='smearing',
  !  smearing='mv'
   ! degauss=0.01
                     nbnd=50
                     !lspinorb=.true.
 /
 &ELECTRONS
            electron_maxstep = 300
                    conv_thr = 1.0D-8
                 mixing_beta = 0.7
             diagonalization = 'david'
 /
&IONS
 /
&CELL
cell_dynamics='bfgs'
cell_factor=2.5
cell_dofree='2Dxy'
/

ATOMIC_SPECIES
Mo  95.95  Mo.pw-mt_fhi.UPF
S   32.065  S.pw-mt_fhi.UPF

CELL_PARAMETERS (alat=  5.65783961)
   0.992173521   0.000586521   0.000000000
  -0.495578822   0.859541344   0.000000000
   0.000000000   0.000000000   5.840610472

ATOMIC_POSITIONS (angstrom)
Mo            1.5339965126        0.8560531999       11.1592538633
S            -0.0130943766        1.7492667714       12.7045295548
S            -0.0130940426        1.7492665433        9.6139755819

K_POINTS automatic
10  10  1   0 0 0

