&dos
               
                      outdir = './out'
                 DeltaE=0.1
                    fildos = '3x3_MoS2.dos.dat'
                    prefix = '3x3_MoS2'
                    degauss = 0.05
                    
/
