&projwfc
               
                      outdir = './out'
                 DeltaE=0.1
                    filproj = '3x3_MoS2.pdos.dat'
                    prefix = '3x3_MoS2'
                    degauss=0.02
/
