&CONTROL
  calculation = 'bands'
  outdir = './out/'
  pseudo_dir = './'
  prefix = '3x3_MoS2'
  verbosity = 'high'
/
&SYSTEM
                       ibrav = 0
                        ntyp = 2
                        nat=26
                    ecutwfc = 60,
                    ecutrho = 600,
                    celldm(1)=17.57351883
                     !celldm(3)= 4.757624000
                     vdw_corr='grimme-d2',
 !occupations='smearing',
  !  smearing='mv'
   ! degauss=0.01
                     nbnd=100    
                     !lspinorb=.true.
/
&ELECTRONS
 		electron_maxstep = 300
               conv_thr = 1.0D-8
               mixing_beta = 0.7
               diagonalization = 'david'
/
&CELL
cell_dynamics='bfgs'
cell_factor=2.5
cell_dofree='2Dxy'
/

ATOMIC_SPECIES
Mo  95.95  Mo.pw-mt_fhi.UPF
S   32.065  S.pw-mt_fhi.UPF

CELL_PARAMETERS (alat= 17.57351883)
   0.988692484  -0.000006971   0.000000000
  -0.494352283   0.856229331   0.000000000
   0.000000000   0.000000000   1.946870157

ATOMIC_POSITIONS (angstrom)
Mo            1.5316876389        0.8998040650       11.1534982016
S             0.0392398193        1.8179476414       12.7103729281
S            -0.0211205677        1.7778244890        9.6083539847
Mo            0.0458249901        3.5574675033       11.1263767303
S            -1.4639488414        4.4215400577       12.7103100107
S            -1.5287802709        4.3893104065        9.6082329074
Mo           -1.5128979418        6.1730613536       11.1534090063
S            -3.0655170349        7.0694664403       12.6938339615
S            -3.0655841218        7.0695051498        9.6139382341
Mo            4.5969734719        0.8766414628       11.1908636541
S             3.0241859098        1.8178225913       12.7104002867
S             3.0844531905        1.7778161375        9.6083035630
Mo            3.0176091195        3.5573719356       11.1264435684
S             1.5317857096        4.4152123555        9.5595634295
Mo            1.5316343472        6.1309646961       11.1263767634
S             0.0284386886        7.0064311302       12.7103097712
S             0.0239347163        7.0786911233        9.6082328680
Mo            7.6607139160        0.8766740361       11.1909574324
S             6.1287897520        1.7611309637       12.7527310552
S             6.1288782834        1.7610801743        9.6507931309
Mo            6.1288720405        3.5299676478       11.1908639473
S             4.5273912795        4.4214509759       12.7104003769
S             4.5921719069        4.3892610084        9.6083039423
Mo            4.5761696427        6.1730015486       11.1534982543
S             3.0348099801        7.0064274582       12.7103728993
S             3.0393774195        7.0787627340        9.6083542323

 K_POINTS crystal
         100
        0.0000000000    0.0000000000    0.0000000000    1.0
        0.0138888889   -0.0138888889    0.0000000000    1.0
        0.0277777778   -0.0277777778    0.0000000000    1.0
        0.0416666667   -0.0416666667    0.0000000000    1.0
        0.0555555556   -0.0555555556    0.0000000000    1.0
        0.0694444444   -0.0694444444    0.0000000000    1.0
        0.0833333333   -0.0833333333    0.0000000000    1.0
        0.0972222222   -0.0972222222    0.0000000000    1.0
        0.1111111111   -0.1111111111    0.0000000000    1.0
        0.1250000000   -0.1250000000    0.0000000000    1.0
        0.1388888889   -0.1388888889    0.0000000000    1.0
        0.1527777778   -0.1527777778    0.0000000000    1.0
        0.1666666667   -0.1666666667    0.0000000000    1.0
        0.1805555556   -0.1805555556    0.0000000000    1.0
        0.1944444444   -0.1944444444    0.0000000000    1.0
        0.2083333333   -0.2083333333    0.0000000000    1.0
        0.2222222222   -0.2222222222    0.0000000000    1.0
        0.2361111111   -0.2361111111    0.0000000000    1.0
        0.2500000000   -0.2500000000    0.0000000000    1.0
        0.2638888889   -0.2638888889    0.0000000000    1.0
        0.2777777778   -0.2777777778    0.0000000000    1.0
        0.2916666667   -0.2916666667    0.0000000000    1.0
        0.3055555556   -0.3055555556    0.0000000000    1.0
        0.3194444444   -0.3194444444    0.0000000000    1.0
        0.3333333333   -0.3333333333    0.0000000000    1.0
        0.3472222222   -0.3472222222    0.0000000000    1.0
        0.3611111111   -0.3611111111    0.0000000000    1.0
        0.3750000000   -0.3750000000    0.0000000000    1.0
        0.3888888889   -0.3888888889    0.0000000000    1.0
        0.4027777778   -0.4027777778    0.0000000000    1.0
        0.4166666667   -0.4166666667    0.0000000000    1.0
        0.4305555556   -0.4305555556    0.0000000000    1.0
        0.4444444444   -0.4444444444    0.0000000000    1.0
        0.4583333333   -0.4583333333    0.0000000000    1.0
        0.4722222222   -0.4722222222    0.0000000000    1.0
        0.4861111111   -0.4861111111    0.0000000000    1.0
        0.5000000000   -0.5000000000    0.0000000000    1.0
        0.4920633333   -0.5079366667    0.0000000000    1.0
        0.4841266667   -0.5158733333    0.0000000000    1.0
        0.4761900000   -0.5238100000    0.0000000000    1.0
        0.4682533333   -0.5317466667    0.0000000000    1.0
        0.4603166667   -0.5396833333    0.0000000000    1.0
        0.4523800000   -0.5476200000    0.0000000000    1.0
        0.4444433333   -0.5555566667    0.0000000000    1.0
        0.4365066667   -0.5634933333    0.0000000000    1.0
        0.4285700000   -0.5714300000    0.0000000000    1.0
        0.4206333333   -0.5793666667    0.0000000000    1.0
        0.4126966667   -0.5873033333    0.0000000000    1.0
        0.4047600000   -0.5952400000    0.0000000000    1.0
        0.3968233333   -0.6031766667    0.0000000000    1.0
        0.3888866667   -0.6111133333    0.0000000000    1.0
        0.3809500000   -0.6190500000    0.0000000000    1.0
        0.3730133333   -0.6269866667    0.0000000000    1.0
        0.3650766667   -0.6349233333    0.0000000000    1.0
        0.3571400000   -0.6428600000    0.0000000000    1.0
        0.3492033333   -0.6507966667    0.0000000000    1.0
        0.3412666667   -0.6587333333    0.0000000000    1.0
        0.3333300000   -0.6666700000    0.0000000000    1.0
        0.3253935714   -0.6507969048    0.0000000000    1.0
        0.3174571429   -0.6349238095    0.0000000000    1.0
        0.3095207143   -0.6190507143    0.0000000000    1.0
        0.3015842857   -0.6031776190    0.0000000000    1.0
        0.2936478571   -0.5873045238    0.0000000000    1.0
        0.2857114286   -0.5714314286    0.0000000000    1.0
        0.2777750000   -0.5555583333    0.0000000000    1.0
        0.2698385714   -0.5396852381    0.0000000000    1.0
        0.2619021429   -0.5238121429    0.0000000000    1.0
        0.2539657143   -0.5079390476    0.0000000000    1.0
        0.2460292857   -0.4920659524    0.0000000000    1.0
        0.2380928571   -0.4761928571    0.0000000000    1.0
        0.2301564286   -0.4603197619    0.0000000000    1.0
        0.2222200000   -0.4444466667    0.0000000000    1.0
        0.2142835714   -0.4285735714    0.0000000000    1.0
        0.2063471429   -0.4127004762    0.0000000000    1.0
        0.1984107143   -0.3968273810    0.0000000000    1.0
        0.1904742857   -0.3809542857    0.0000000000    1.0
        0.1825378571   -0.3650811905    0.0000000000    1.0
        0.1746014286   -0.3492080952    0.0000000000    1.0
        0.1666650000   -0.3333350000    0.0000000000    1.0
        0.1587285714   -0.3174619048    0.0000000000    1.0
        0.1507921429   -0.3015888095    0.0000000000    1.0
        0.1428557143   -0.2857157143    0.0000000000    1.0
        0.1349192857   -0.2698426190    0.0000000000    1.0
        0.1269828571   -0.2539695238    0.0000000000    1.0
        0.1190464286   -0.2380964286    0.0000000000    1.0
        0.1111100000   -0.2222233333    0.0000000000    1.0
        0.1031735714   -0.2063502381    0.0000000000    1.0
        0.0952371429   -0.1904771429    0.0000000000    1.0
        0.0873007143   -0.1746040476    0.0000000000    1.0
        0.0793642857   -0.1587309524    0.0000000000    1.0
        0.0714278571   -0.1428578571    0.0000000000    1.0
        0.0634914286   -0.1269847619    0.0000000000    1.0
        0.0555550000   -0.1111116667    0.0000000000    1.0
        0.0476185714   -0.0952385714    0.0000000000    1.0
        0.0396821429   -0.0793654762    0.0000000000    1.0
        0.0317457143   -0.0634923810    0.0000000000    1.0
        0.0238092857   -0.0476192857    0.0000000000    1.0
        0.0158728571   -0.0317461905    0.0000000000    1.0
        0.0079364286   -0.0158730952    0.0000000000    1.0
        0.0000000000    0.0000000000    0.0000000000    1.0
